DIMACS_lns/graph-1000-326.col
p edge 1000 1808
e 1 587
e 1 808
e 1 654
e 1 407
e 1 610
e 1 140
e 1 296
e 3 813
e 3 293
e 3 7
e 4 684
e 4 632
e 4 205
e 5 376
e 5 688
e 5 114
e 6 390
e 6 315
e 6 814
e 6 487
e 6 134
e 7 87
e 7 474
e 7 554
e 10 484
e 10 35
e 10 153
e 10 199
e 12 734
e 12 403
e 12 508
e 13 314
e 13 41
e 13 27
e 14 267
e 14 199
e 14 94
e 14 816
e 14 494
e 14 391
e 15 718
e 15 167
e 15 353
e 16 895
e 16 724
e 16 770
e 17 958
e 17 184
e 17 620
e 19 668
e 19 914
e 19 483
e 21 192
e 21 163
e 21 917
e 22 590
e 22 96
e 22 927
e 24 747
e 24 423
e 24 266
e 24 321
e 24 633
e 24 802
e 25 599
e 25 685
e 25 118
e 25 558
e 25 931
e 25 483
e 25 66
e 25 238
e 26 954
e 26 656
e 26 672
e 26 264
e 26 290
e 26 592
e 26 313
e 26 91
e 27 958
e 27 973
e 27 141
e 27 614
e 27 621
e 27 100
e 27 970
e 29 317
e 29 263
e 29 569
e 29 82
e 30 987
e 30 71
e 30 467
e 31 277
e 31 380
e 31 627
e 33 812
e 33 132
e 33 747
e 33 50
e 34 190
e 34 438
e 34 472
e 35 627
e 35 640
e 35 242
e 39 574
e 39 591
e 39 75
e 39 341
e 41 87
e 41 715
e 43 485
e 43 68
e 43 508
e 43 752
e 43 687
e 45 142
e 45 507
e 45 876
e 45 648
e 45 747
e 45 498
e 48 416
e 48 194
e 48 159
e 48 688
e 48 965
e 50 98
e 50 945
e 50 951
e 51 234
e 51 496
e 51 110
e 51 569
e 52 98
e 52 106
e 52 293
e 52 89
e 54 576
e 54 901
e 54 419
e 54 218
e 54 291
e 54 276
e 54 226
e 55 856
e 55 534
e 55 580
e 55 814
e 55 319
e 56 63
e 56 212
e 56 534
e 56 589
e 56 873
e 56 148
e 57 750
e 57 901
e 57 59
e 59 257
e 59 986
e 59 369
e 59 525
e 59 806
e 60 907
e 60 117
e 60 862
e 60 990
e 62 777
e 62 181
e 62 393
e 62 451
e 63 587
e 63 458
e 63 143
e 63 121
e 64 579
e 64 343
e 64 358
e 65 888
e 65 451
e 65 207
e 66 817
e 66 430
e 66 672
e 66 769
e 66 632
e 67 138
e 67 932
e 67 990
e 67 678
e 67 959
e 67 691
e 68 765
e 68 98
e 69 469
e 69 982
e 69 914
e 69 938
e 69 241
e 69 71
e 70 565
e 70 994
e 70 601
e 70 125
e 70 247
e 70 229
e 70 631
e 71 163
e 71 663
e 71 341
e 71 301
e 71 578
e 72 997
e 72 393
e 72 994
e 72 354
e 73 240
e 73 413
e 73 653
e 75 210
e 75 627
e 77 462
e 77 88
e 77 974
e 78 686
e 78 283
e 78 606
e 78 564
e 78 766
e 78 210
e 78 710
e 79 818
e 79 121
e 79 319
e 79 888
e 80 723
e 80 678
e 80 331
e 80 626
e 80 559
e 81 902
e 81 302
e 81 953
e 81 644
e 81 293
e 81 122
e 81 366
e 81 684
e 81 242
e 82 360
e 82 301
e 82 706
e 82 332
e 82 256
e 82 431
e 83 261
e 83 900
e 83 871
e 83 710
e 83 153
e 85 171
e 85 252
e 85 973
e 85 691
e 85 239
e 87 765
e 87 590
e 87 821
e 87 969
e 88 104
e 88 110
e 88 715
e 88 942
e 89 264
e 89 335
e 89 777
e 89 916
e 91 863
e 91 845
e 91 268
e 91 924
e 91 813
e 92 816
e 92 505
e 92 243
e 92 495
e 92 778
e 93 907
e 93 695
e 93 300
e 93 373
e 93 439
e 94 328
e 94 472
e 94 907
e 95 359
e 95 551
e 95 688
e 95 746
e 96 940
e 96 721
e 96 653
e 96 465
e 96 159
e 96 810
e 96 674
e 96 223
e 97 920
e 97 926
e 97 680
e 97 932
e 97 263
e 97 405
e 98 361
e 98 374
e 98 808
e 99 610
e 99 545
e 99 298
e 99 688
e 100 959
e 100 235
e 100 610
e 100 162
e 103 957
e 103 669
e 103 784
e 103 466
e 104 179
e 104 888
e 104 810
e 104 380
e 105 587
e 105 149
e 105 300
e 105 235
e 106 386
e 106 644
e 108 370
e 108 919
e 108 534
e 109 671
e 109 785
e 109 335
e 110 780
e 110 304
e 110 511
e 110 267
e 111 259
e 111 607
e 111 200
e 111 692
e 111 855
e 114 760
e 114 766
e 114 371
e 114 572
e 114 312
e 116 531
e 116 411
e 116 747
e 116 398
e 117 142
e 117 583
e 117 716
e 117 323
e 117 162
e 118 770
e 118 297
e 118 697
e 119 572
e 119 692
e 119 651
e 120 581
e 120 812
e 120 950
e 120 404
e 120 287
e 121 288
e 121 234
e 121 485
e 121 250
e 122 733
e 122 628
e 122 740
e 122 677
e 122 792
e 122 388
e 122 126
e 123 314
e 123 144
e 123 306
e 123 754
e 125 508
e 125 964
e 125 218
e 126 688
e 126 436
e 129 542
e 129 649
e 129 599
e 131 302
e 131 585
e 131 364
e 131 798
e 131 763
e 132 521
e 132 297
e 133 305
e 133 702
e 133 437
e 133 535
e 133 410
e 133 961
e 134 620
e 134 748
e 134 140
e 134 157
e 134 744
e 136 666
e 136 754
e 136 994
e 137 199
e 137 496
e 137 264
e 137 363
e 137 526
e 138 210
e 138 687
e 139 803
e 139 307
e 139 376
e 140 167
e 140 915
e 140 729
e 141 286
e 141 979
e 141 670
e 141 428
e 142 446
e 142 459
e 142 707
e 142 726
e 143 257
e 143 873
e 143 689
e 144 566
e 144 928
e 144 973
e 144 684
e 144 549
e 145 236
e 145 786
e 145 556
e 145 259
e 145 739
e 145 197
e 145 743
e 145 445
e 145 905
e 146 970
e 146 356
e 146 429
e 146 653
e 147 462
e 147 585
e 147 829
e 147 194
e 148 657
e 148 221
e 148 457
e 149 620
e 149 359
e 149 668
e 150 167
e 150 490
e 150 200
e 150 827
e 153 690
e 153 827
e 153 768
e 153 794
e 153 427
e 154 366
e 154 858
e 154 205
e 155 260
e 155 156
e 155 800
e 155 747
e 155 292
e 156 941
e 156 971
e 156 171
e 156 826
e 157 419
e 157 367
e 157 290
e 159 271
e 159 161
e 159 417
e 159 916
e 159 956
e 160 623
e 160 473
e 160 800
e 161 391
e 161 615
e 162 916
e 162 200
e 162 959
e 162 742
e 163 355
e 163 985
e 163 809
e 163 911
e 163 431
e 164 975
e 164 900
e 164 827
e 164 857
e 164 829
e 164 261
e 164 438
e 167 184
e 167 445
e 167 474
e 167 695
e 168 971
e 168 438
e 168 601
e 168 972
e 168 564
e 168 183
e 168 587
e 168 570
e 171 966
e 171 313
e 172 354
e 172 796
e 172 916
e 175 303
e 175 816
e 175 916
e 175 987
e 175 490
e 177 251
e 177 359
e 177 981
e 177 789
e 177 942
e 177 412
e 178 401
e 178 882
e 178 419
e 178 279
e 178 632
e 179 652
e 179 888
e 179 515
e 179 245
e 179 541
e 180 631
e 180 563
e 180 995
e 180 699
e 180 351
e 181 956
e 181 694
e 182 651
e 182 958
e 182 346
e 182 225
e 182 740
e 182 773
e 182 895
e 182 987
e 183 431
e 183 733
e 183 794
e 183 882
e 183 300
e 184 668
e 184 824
e 184 423
e 184 705
e 184 679
e 188 271
e 188 969
e 188 200
e 188 719
e 188 373
e 188 734
e 188 889
e 190 504
e 190 868
e 191 818
e 191 670
e 191 303
e 191 767
e 192 995
e 192 946
e 192 998
e 193 503
e 193 861
e 193 401
e 193 440
e 194 968
e 194 859
e 194 341
e 196 411
e 196 300
e 196 323
e 196 500
e 196 716
e 197 669
e 197 689
e 197 901
e 197 263
e 197 648
e 197 336
e 199 490
e 199 920
e 199 303
e 199 412
e 199 528
e 200 394
e 203 465
e 203 240
e 203 760
e 205 309
e 205 740
e 205 630
e 207 719
e 207 459
e 207 671
e 207 942
e 207 556
e 207 494
e 207 539
e 207 995
e 210 211
e 210 353
e 210 464
e 210 335
e 211 475
e 211 223
e 212 434
e 212 998
e 212 260
e 212 656
e 213 229
e 213 237
e 213 877
e 214 486
e 214 298
e 214 464
e 214 621
e 215 495
e 215 465
e 215 835
e 215 653
e 216 388
e 216 245
e 216 306
e 217 961
e 217 746
e 217 561
e 217 398
e 217 637
e 217 667
e 217 723
e 218 871
e 218 576
e 218 539
e 218 537
e 220 375
e 220 981
e 220 675
e 220 784
e 220 718
e 220 245
e 220 740
e 221 762
e 221 267
e 223 290
e 223 840
e 223 686
e 224 564
e 224 699
e 224 662
e 225 394
e 225 259
e 226 808
e 226 715
e 226 342
e 228 621
e 228 247
e 228 631
e 228 715
e 229 954
e 229 613
e 231 329
e 231 379
e 231 752
e 231 440
e 231 742
e 231 514
e 232 806
e 232 589
e 232 293
e 232 354
e 234 666
e 234 930
e 234 719
e 235 521
e 235 567
e 236 292
e 236 656
e 236 591
e 236 270
e 236 981
e 237 520
e 237 673
e 238 711
e 238 483
e 238 391
e 238 993
e 239 846
e 239 388
e 240 623
e 240 398
e 240 657
e 241 897
e 241 823
e 241 930
e 241 905
e 242 820
e 242 998
e 242 754
e 242 496
e 243 254
e 243 802
e 245 255
e 245 558
e 245 788
e 245 516
e 247 555
e 247 955
e 247 557
e 248 382
e 248 817
e 248 574
e 250 768
e 250 534
e 250 377
e 251 467
e 251 663
e 251 369
e 251 978
e 251 973
e 252 477
e 252 585
e 252 806
e 252 548
e 252 370
e 253 944
e 253 797
e 253 311
e 253 976
e 253 848
e 253 422
e 253 268
e 253 889
e 253 651
e 254 469
e 254 772
e 254 969
e 255 724
e 255 307
e 256 567
e 256 266
e 256 339
e 256 711
e 256 615
e 256 685
e 257 527
e 257 664
e 259 325
e 259 406
e 259 889
e 260 749
e 260 791
e 260 496
e 260 851
e 260 942
e 261 762
e 261 559
e 261 818
e 262 803
e 262 793
e 262 610
e 263 897
e 263 736
e 263 965
e 264 438
e 264 707
e 264 924
e 264 416
e 264 363
e 266 290
e 266 751
e 266 911
e 266 817
e 266 845
e 267 957
e 267 467
e 267 721
e 268 324
e 268 325
e 268 827
e 268 302
e 268 688
e 268 648
e 269 582
e 269 474
e 269 999
e 270 819
e 270 609
e 270 670
e 270 393
e 270 789
e 270 770
e 271 366
e 273 673
e 273 563
e 273 504
e 273 775
e 273 430
e 276 954
e 276 314
e 276 849
e 277 922
e 277 626
e 277 521
e 279 626
e 279 511
e 279 347
e 280 627
e 280 885
e 280 387
e 280 375
e 280 746
e 281 792
e 281 680
e 281 951
e 283 314
e 283 287
e 283 570
e 286 597
e 286 542
e 286 321
e 286 802
e 287 586
e 288 344
e 288 750
e 288 678
e 290 365
e 290 449
e 290 962
e 291 651
e 291 970
e 291 663
e 291 610
e 291 332
e 291 594
e 292 841
e 292 639
e 293 422
e 293 985
e 293 453
e 294 772
e 294 961
e 294 360
e 296 582
e 296 797
e 296 622
e 296 732
e 297 814
e 297 901
e 297 579
e 298 430
e 299 927
e 299 548
e 299 347
e 299 532
e 299 821
e 300 379
e 300 505
e 301 959
e 302 589
e 302 922
e 302 856
e 303 723
e 303 829
e 303 549
e 303 384
e 304 751
e 304 512
e 304 665
e 304 951
e 304 459
e 305 667
e 305 862
e 305 779
e 305 821
e 305 342
e 306 689
e 307 866
e 307 857
e 308 680
e 308 477
e 308 895
e 308 736
e 309 351
e 309 690
e 309 621
e 309 575
e 309 657
e 311 727
e 311 508
e 311 769
e 312 796
e 312 390
e 312 583
e 312 863
e 313 836
e 314 426
e 314 375
e 315 715
e 315 656
e 315 848
e 316 734
e 316 588
e 316 972
e 317 814
e 317 871
e 317 670
e 317 813
e 317 535
e 319 466
e 321 499
e 321 907
e 321 419
e 321 468
e 323 474
e 323 532
e 323 712
e 323 412
e 324 542
e 324 403
e 324 746
e 325 367
e 325 377
e 325 339
e 325 953
e 325 349
e 328 410
e 328 354
e 329 973
e 329 600
e 329 566
e 331 720
e 331 898
e 331 950
e 331 694
e 331 557
e 332 816
e 332 615
e 335 555
e 335 973
e 335 829
e 335 529
e 336 640
e 336 669
e 337 610
e 337 399
e 337 813
e 338 561
e 338 519
e 338 474
e 338 397
e 339 936
e 341 849
e 342 419
e 342 848
e 343 413
e 343 993
e 344 982
e 344 764
e 345 619
e 345 999
e 345 670
e 345 706
e 346 922
e 346 586
e 346 880
e 347 355
e 349 439
e 349 413
e 349 715
e 350 769
e 350 549
e 350 426
e 350 710
e 351 969
e 353 833
e 353 462
e 353 572
e 353 635
e 354 369
e 354 699
e 354 944
e 355 842
e 355 760
e 355 762
e 355 617
e 356 915
e 356 975
e 356 873
e 358 706
e 358 917
e 358 541
e 358 545
e 359 830
e 359 449
e 360 882
e 360 514
e 361 868
e 361 631
e 361 930
e 362 576
e 362 861
e 362 514
e 363 640
e 363 759
e 363 512
e 363 597
e 364 787
e 364 653
e 364 923
e 365 472
e 365 769
e 366 494
e 366 386
e 366 913
e 367 968
e 369 374
e 369 959
e 369 793
e 369 685
e 369 375
e 369 955
e 370 988
e 370 411
e 371 858
e 371 519
e 371 827
e 371 429
e 371 576
e 373 795
e 373 743
e 373 532
e 373 775
e 374 399
e 374 539
e 375 623
e 375 970
e 375 632
e 376 814
e 376 515
e 376 819
e 376 389
e 377 451
e 377 851
e 377 898
e 377 664
e 378 923
e 378 744
e 378 702
e 379 466
e 379 582
e 379 970
e 379 892
e 379 612
e 380 988
e 382 723
e 382 946
e 384 548
e 384 468
e 386 993
e 386 459
e 386 567
e 387 445
e 387 633
e 387 585
e 388 841
e 388 716
e 388 790
e 389 962
e 389 835
e 390 504
e 390 814
e 390 782
e 390 405
e 390 918
e 391 987
e 391 669
e 392 573
e 392 618
e 392 892
e 393 793
e 393 748
e 394 679
e 394 995
e 396 982
e 396 745
e 396 533
e 396 738
e 397 487
e 397 879
e 398 976
e 398 681
e 399 615
e 399 560
e 399 691
e 401 488
e 401 807
e 401 995
e 401 973
e 401 484
e 403 668
e 403 523
e 403 715
e 403 522
e 403 975
e 404 902
e 404 551
e 405 890
e 405 932
e 406 791
e 406 662
e 407 829
e 407 959
e 408 567
e 408 829
e 408 617
e 408 601
e 410 474
e 410 702
e 411 898
e 411 1000
e 411 599
e 411 986
e 412 505
e 412 414
e 413 622
e 413 897
e 413 716
e 413 549
e 414 788
e 414 965
e 414 885
e 414 783
e 415 996
e 415 573
e 415 570
e 415 877
e 416 473
e 416 842
e 416 545
e 417 908
e 417 871
e 417 787
e 422 846
e 422 653
e 423 537
e 423 844
e 423 798
e 424 803
e 424 801
e 424 612
e 424 596
e 426 606
e 427 964
e 427 863
e 427 927
e 427 488
e 427 518
e 428 439
e 428 845
e 428 537
e 428 931
e 428 694
e 429 561
e 429 962
e 430 788
e 430 869
e 430 604
e 430 851
e 430 610
e 431 711
e 431 820
e 431 472
e 432 988
e 432 736
e 432 666
e 432 832
e 433 795
e 433 563
e 433 968
e 434 763
e 434 663
e 436 692
e 436 504
e 437 764
e 437 572
e 437 611
e 437 836
e 438 936
e 439 541
e 439 531
e 440 740
e 440 817
e 441 855
e 441 601
e 441 706
e 441 956
e 443 605
e 443 514
e 443 575
e 443 654
e 443 655
e 443 806
e 445 919
e 446 674
e 446 969
e 446 593
e 446 562
e 449 557
e 449 565
e 449 783
e 453 462
e 453 787
e 457 566
e 457 894
e 458 465
e 458 890
e 458 607
e 459 601
e 459 483
e 459 507
e 459 916
e 462 929
e 462 792
e 462 529
e 464 689
e 464 807
e 465 944
e 466 523
e 466 999
e 466 929
e 466 818
e 467 849
e 467 479
e 468 843
e 469 940
e 472 672
e 473 995
e 474 687
e 474 875
e 474 914
e 474 843
e 475 732
e 475 938
e 475 760
e 475 476
e 476 832
e 476 570
e 476 956
e 477 697
e 477 750
e 477 780
e 479 637
e 479 804
e 483 873
e 484 739
e 484 974
e 484 968
e 485 899
e 486 546
e 486 710
e 486 656
e 486 632
e 486 545
e 487 890
e 487 809
e 487 899
e 487 570
e 488 808
e 488 679
e 488 783
e 489 661
e 489 612
e 489 903
e 489 702
e 489 667
e 490 966
e 490 930
e 490 830
e 492 928
e 492 546
e 492 898
e 492 685
e 492 916
e 495 856
e 495 823
e 498 845
e 498 768
e 498 810
e 498 547
e 499 654
e 499 770
e 499 772
e 500 699
e 500 835
e 503 954
e 503 539
e 503 732
e 503 671
e 504 963
e 504 899
e 504 670
e 505 908
e 507 885
e 508 866
e 508 835
e 511 657
e 511 732
e 511 543
e 511 904
e 511 733
e 512 906
e 514 873
e 514 559
e 515 869
e 515 805
e 516 994
e 516 936
e 516 840
e 516 673
e 516 820
e 518 694
e 518 932
e 519 578
e 519 652
e 519 705
e 520 667
e 520 741
e 522 533
e 522 938
e 522 741
e 523 583
e 525 766
e 525 747
e 525 640
e 525 727
e 525 570
e 526 623
e 526 748
e 527 941
e 527 752
e 527 736
e 528 762
e 528 692
e 528 668
e 528 579
e 529 541
e 529 569
e 531 547
e 531 681
e 531 576
e 531 668
e 532 836
e 533 668
e 534 733
e 534 615
e 535 747
e 535 659
e 537 607
e 537 654
e 539 974
e 541 790
e 541 972
e 542 622
e 543 587
e 543 547
e 543 810
e 543 662
e 545 692
e 545 932
e 545 966
e 545 804
e 546 871
e 546 876
e 547 787
e 547 555
e 547 630
e 548 823
e 549 790
e 550 646
e 550 604
e 550 855
e 550 711
e 551 733
e 551 833
e 554 961
e 554 650
e 554 655
e 555 979
e 555 729
e 556 826
e 556 930
e 556 995
e 556 797
e 558 655
e 558 809
e 558 671
e 559 897
e 560 618
e 560 902
e 561 592
e 561 724
e 562 699
e 562 742
e 563 863
e 564 925
e 564 605
e 564 635
e 565 952
e 565 611
e 566 567
e 566 578
e 566 673
e 566 969
e 569 835
e 569 814
e 569 581
e 573 971
e 573 798
e 573 969
e 574 623
e 574 972
e 575 925
e 578 736
e 579 988
e 579 580
e 579 721
e 580 810
e 580 987
e 581 609
e 581 600
e 582 840
e 582 990
e 582 585
e 583 678
e 583 603
e 585 610
e 585 618
e 586 633
e 586 780
e 586 686
e 587 821
e 587 746
e 587 777
e 588 611
e 588 829
e 589 836
e 589 818
e 590 817
e 591 797
e 591 812
e 591 649
e 591 804
e 592 617
e 593 951
e 593 718
e 594 718
e 594 850
e 596 657
e 596 673
e 597 794
e 597 990
e 599 648
e 599 798
e 599 952
e 599 842
e 600 985
e 601 866
e 603 724
e 603 928
e 603 940
e 604 637
e 604 639
e 604 785
e 605 915
e 606 796
e 606 639
e 607 770
e 609 726
e 612 926
e 613 656
e 613 695
e 613 879
e 613 720
e 614 778
e 614 990
e 615 850
e 615 892
e 615 911
e 615 635
e 618 855
e 618 620
e 619 872
e 619 734
e 619 859
e 620 649
e 621 668
e 622 917
e 627 997
e 627 797
e 627 996
e 628 715
e 628 826
e 630 901
e 632 738
e 633 894
e 635 915
e 636 849
e 636 796
e 636 851
e 638 978
e 638 732
e 638 849
e 638 872
e 639 819
e 640 971
e 640 728
e 640 823
e 644 959
e 644 720
e 646 833
e 646 712
e 646 793
e 646 685
e 648 763
e 650 669
e 650 963
e 650 779
e 650 810
e 650 916
e 651 745
e 651 965
e 651 773
e 652 862
e 653 941
e 653 805
e 653 741
e 653 965
e 654 749
e 654 875
e 655 871
e 655 945
e 656 830
e 656 679
e 659 855
e 659 816
e 661 772
e 661 745
e 663 819
e 663 830
e 664 704
e 664 918
e 664 930
e 665 773
e 665 780
e 666 964
e 667 880
e 669 930
e 670 809
e 671 978
e 671 904
e 671 871
e 672 903
e 673 821
e 673 898
e 674 976
e 674 816
e 674 971
e 675 689
e 675 955
e 677 877
e 677 800
e 677 744
e 678 954
e 678 885
e 678 819
e 679 957
e 680 952
e 680 927
e 680 758
e 680 928
e 681 736
e 684 880
e 684 819
e 685 782
e 685 800
e 686 763
e 687 759
e 687 908
e 688 707
e 689 998
e 689 776
e 690 968
e 691 900
e 694 833
e 694 748
e 694 868
e 694 855
e 697 924
e 699 719
e 702 890
e 702 809
e 704 726
e 704 705
e 705 944
e 705 911
e 706 999
e 707 846
e 707 758
e 707 777
e 711 931
e 712 955
e 718 968
e 718 748
e 718 772
e 719 745
e 720 752
e 723 826
e 724 930
e 727 971
e 727 801
e 728 739
e 728 776
e 729 790
e 732 744
e 732 986
e 736 953
e 736 836
e 738 969
e 738 894
e 739 808
e 739 809
e 739 800
e 739 876
e 739 903
e 740 973
e 740 759
e 741 908
e 742 963
e 743 813
e 743 885
e 744 998
e 745 844
e 745 957
e 746 798
e 747 800
e 747 806
e 748 922
e 749 900
e 749 873
e 750 804
e 750 821
e 750 882
e 750 844
e 751 954
e 751 923
e 758 970
e 759 900
e 759 929
e 760 970
e 762 816
e 763 919
e 764 857
e 765 800
e 767 920
e 767 795
e 767 905
e 768 895
e 768 944
e 772 890
e 772 791
e 773 856
e 773 953
e 775 841
e 775 906
e 776 777
e 776 809
e 777 813
e 777 793
e 778 859
e 779 897
e 780 895
e 780 907
e 782 970
e 783 866
e 783 945
e 784 895
e 785 941
e 786 795
e 786 959
e 789 920
e 790 906
e 792 809
e 794 972
e 797 807
e 797 835
e 798 944
e 798 918
e 800 857
e 801 827
e 801 832
e 802 841
e 805 1000
e 808 959
e 808 953
e 810 826
e 810 996
e 817 979
e 821 848
e 823 962
e 823 988
e 824 975
e 824 930
e 824 999
e 829 975
e 829 904
e 833 871
e 835 900
e 836 986
e 836 856
e 836 880
e 840 906
e 840 902
e 842 898
e 843 851
e 843 927
e 848 872
e 849 859
e 850 997
e 850 899
e 851 978
e 851 913
e 858 1000
e 859 958
e 859 868
e 859 995
e 861 959
e 866 925
e 866 907
e 869 986
e 872 973
e 873 999
e 875 950
e 879 936
e 880 945
e 882 923
e 882 929
e 895 954
e 895 941
e 899 942
e 913 922
e 914 928
e 917 971
e 922 998
e 922 976
e 924 1000
e 926 971
e 927 993
e 928 946
e 944 978
e 975 976
e 981 986
e 985 996
e 988 1000
