txt_Ins/graph-1000-326.txt
n 1000
e 0 586
e 0 807
e 0 653
e 0 406
e 0 609
e 0 139
e 0 295
e 2 812
e 2 292
e 2 6
e 3 683
e 3 631
e 3 204
e 4 375
e 4 687
e 4 113
e 5 389
e 5 314
e 5 813
e 5 486
e 5 133
e 6 86
e 6 473
e 6 553
e 9 483
e 9 34
e 9 152
e 9 198
e 11 733
e 11 402
e 11 507
e 12 313
e 12 40
e 12 26
e 13 266
e 13 198
e 13 93
e 13 815
e 13 493
e 13 390
e 14 717
e 14 166
e 14 352
e 15 894
e 15 723
e 15 769
e 16 957
e 16 183
e 16 619
e 18 667
e 18 913
e 18 482
e 20 191
e 20 162
e 20 916
e 21 589
e 21 95
e 21 926
e 23 746
e 23 422
e 23 265
e 23 320
e 23 632
e 23 801
e 24 598
e 24 684
e 24 117
e 24 557
e 24 930
e 24 482
e 24 65
e 24 237
e 25 953
e 25 655
e 25 671
e 25 263
e 25 289
e 25 591
e 25 312
e 25 90
e 26 957
e 26 972
e 26 140
e 26 613
e 26 620
e 26 99
e 26 969
e 28 316
e 28 262
e 28 568
e 28 81
e 29 986
e 29 70
e 29 466
e 30 276
e 30 379
e 30 626
e 32 811
e 32 131
e 32 746
e 32 49
e 33 189
e 33 437
e 33 471
e 34 626
e 34 639
e 34 241
e 38 573
e 38 590
e 38 74
e 38 340
e 40 86
e 40 714
e 42 484
e 42 67
e 42 507
e 42 751
e 42 686
e 44 141
e 44 506
e 44 875
e 44 647
e 44 746
e 44 497
e 47 415
e 47 193
e 47 158
e 47 687
e 47 964
e 49 97
e 49 944
e 49 950
e 50 233
e 50 495
e 50 109
e 50 568
e 51 97
e 51 105
e 51 292
e 51 88
e 53 575
e 53 900
e 53 418
e 53 217
e 53 290
e 53 275
e 53 225
e 54 855
e 54 533
e 54 579
e 54 813
e 54 318
e 55 62
e 55 211
e 55 533
e 55 588
e 55 872
e 55 147
e 56 749
e 56 900
e 56 58
e 58 256
e 58 985
e 58 368
e 58 524
e 58 805
e 59 906
e 59 116
e 59 861
e 59 989
e 61 776
e 61 180
e 61 392
e 61 450
e 62 586
e 62 457
e 62 142
e 62 120
e 63 578
e 63 342
e 63 357
e 64 887
e 64 450
e 64 206
e 65 816
e 65 429
e 65 671
e 65 768
e 65 631
e 66 137
e 66 931
e 66 989
e 66 677
e 66 958
e 66 690
e 67 764
e 67 97
e 68 468
e 68 981
e 68 913
e 68 937
e 68 240
e 68 70
e 69 564
e 69 993
e 69 600
e 69 124
e 69 246
e 69 228
e 69 630
e 70 162
e 70 662
e 70 340
e 70 300
e 70 577
e 71 996
e 71 392
e 71 993
e 71 353
e 72 239
e 72 412
e 72 652
e 74 209
e 74 626
e 76 461
e 76 87
e 76 973
e 77 685
e 77 282
e 77 605
e 77 563
e 77 765
e 77 209
e 77 709
e 78 817
e 78 120
e 78 318
e 78 887
e 79 722
e 79 677
e 79 330
e 79 625
e 79 558
e 80 901
e 80 301
e 80 952
e 80 643
e 80 292
e 80 121
e 80 365
e 80 683
e 80 241
e 81 359
e 81 300
e 81 705
e 81 331
e 81 255
e 81 430
e 82 260
e 82 899
e 82 870
e 82 709
e 82 152
e 84 170
e 84 251
e 84 972
e 84 690
e 84 238
e 86 764
e 86 589
e 86 820
e 86 968
e 87 103
e 87 109
e 87 714
e 87 941
e 88 263
e 88 334
e 88 776
e 88 915
e 90 862
e 90 844
e 90 267
e 90 923
e 90 812
e 91 815
e 91 504
e 91 242
e 91 494
e 91 777
e 92 906
e 92 694
e 92 299
e 92 372
e 92 438
e 93 327
e 93 471
e 93 906
e 94 358
e 94 550
e 94 687
e 94 745
e 95 939
e 95 720
e 95 652
e 95 464
e 95 158
e 95 809
e 95 673
e 95 222
e 96 919
e 96 925
e 96 679
e 96 931
e 96 262
e 96 404
e 97 360
e 97 373
e 97 807
e 98 609
e 98 544
e 98 297
e 98 687
e 99 958
e 99 234
e 99 609
e 99 161
e 102 956
e 102 668
e 102 783
e 102 465
e 103 178
e 103 887
e 103 809
e 103 379
e 104 586
e 104 148
e 104 299
e 104 234
e 105 385
e 105 643
e 107 369
e 107 918
e 107 533
e 108 670
e 108 784
e 108 334
e 109 779
e 109 303
e 109 510
e 109 266
e 110 258
e 110 606
e 110 199
e 110 691
e 110 854
e 113 759
e 113 765
e 113 370
e 113 571
e 113 311
e 115 530
e 115 410
e 115 746
e 115 397
e 116 141
e 116 582
e 116 715
e 116 322
e 116 161
e 117 769
e 117 296
e 117 696
e 118 571
e 118 691
e 118 650
e 119 580
e 119 811
e 119 949
e 119 403
e 119 286
e 120 287
e 120 233
e 120 484
e 120 249
e 121 732
e 121 627
e 121 739
e 121 676
e 121 791
e 121 387
e 121 125
e 122 313
e 122 143
e 122 305
e 122 753
e 124 507
e 124 963
e 124 217
e 125 687
e 125 435
e 128 541
e 128 648
e 128 598
e 130 301
e 130 584
e 130 363
e 130 797
e 130 762
e 131 520
e 131 296
e 132 304
e 132 701
e 132 436
e 132 534
e 132 409
e 132 960
e 133 619
e 133 747
e 133 139
e 133 156
e 133 743
e 135 665
e 135 753
e 135 993
e 136 198
e 136 495
e 136 263
e 136 362
e 136 525
e 137 209
e 137 686
e 138 802
e 138 306
e 138 375
e 139 166
e 139 914
e 139 728
e 140 285
e 140 978
e 140 669
e 140 427
e 141 445
e 141 458
e 141 706
e 141 725
e 142 256
e 142 872
e 142 688
e 143 565
e 143 927
e 143 972
e 143 683
e 143 548
e 144 235
e 144 785
e 144 555
e 144 258
e 144 738
e 144 196
e 144 742
e 144 444
e 144 904
e 145 969
e 145 355
e 145 428
e 145 652
e 146 461
e 146 584
e 146 828
e 146 193
e 147 656
e 147 220
e 147 456
e 148 619
e 148 358
e 148 667
e 149 166
e 149 489
e 149 199
e 149 826
e 152 689
e 152 826
e 152 767
e 152 793
e 152 426
e 153 365
e 153 857
e 153 204
e 154 259
e 154 155
e 154 799
e 154 746
e 154 291
e 155 940
e 155 970
e 155 170
e 155 825
e 156 418
e 156 366
e 156 289
e 158 270
e 158 160
e 158 416
e 158 915
e 158 955
e 159 622
e 159 472
e 159 799
e 160 390
e 160 614
e 161 915
e 161 199
e 161 958
e 161 741
e 162 354
e 162 984
e 162 808
e 162 910
e 162 430
e 163 974
e 163 899
e 163 826
e 163 856
e 163 828
e 163 260
e 163 437
e 166 183
e 166 444
e 166 473
e 166 694
e 167 970
e 167 437
e 167 600
e 167 971
e 167 563
e 167 182
e 167 586
e 167 569
e 170 965
e 170 312
e 171 353
e 171 795
e 171 915
e 174 302
e 174 815
e 174 915
e 174 986
e 174 489
e 176 250
e 176 358
e 176 980
e 176 788
e 176 941
e 176 411
e 177 400
e 177 881
e 177 418
e 177 278
e 177 631
e 178 651
e 178 887
e 178 514
e 178 244
e 178 540
e 179 630
e 179 562
e 179 994
e 179 698
e 179 350
e 180 955
e 180 693
e 181 650
e 181 957
e 181 345
e 181 224
e 181 739
e 181 772
e 181 894
e 181 986
e 182 430
e 182 732
e 182 793
e 182 881
e 182 299
e 183 667
e 183 823
e 183 422
e 183 704
e 183 678
e 187 270
e 187 968
e 187 199
e 187 718
e 187 372
e 187 733
e 187 888
e 189 503
e 189 867
e 190 817
e 190 669
e 190 302
e 190 766
e 191 994
e 191 945
e 191 997
e 192 502
e 192 860
e 192 400
e 192 439
e 193 967
e 193 858
e 193 340
e 195 410
e 195 299
e 195 322
e 195 499
e 195 715
e 196 668
e 196 688
e 196 900
e 196 262
e 196 647
e 196 335
e 198 489
e 198 919
e 198 302
e 198 411
e 198 527
e 199 393
e 202 464
e 202 239
e 202 759
e 204 308
e 204 739
e 204 629
e 206 718
e 206 458
e 206 670
e 206 941
e 206 555
e 206 493
e 206 538
e 206 994
e 209 210
e 209 352
e 209 463
e 209 334
e 210 474
e 210 222
e 211 433
e 211 997
e 211 259
e 211 655
e 212 228
e 212 236
e 212 876
e 213 485
e 213 297
e 213 463
e 213 620
e 214 494
e 214 464
e 214 834
e 214 652
e 215 387
e 215 244
e 215 305
e 216 960
e 216 745
e 216 560
e 216 397
e 216 636
e 216 666
e 216 722
e 217 870
e 217 575
e 217 538
e 217 536
e 219 374
e 219 980
e 219 674
e 219 783
e 219 717
e 219 244
e 219 739
e 220 761
e 220 266
e 222 289
e 222 839
e 222 685
e 223 563
e 223 698
e 223 661
e 224 393
e 224 258
e 225 807
e 225 714
e 225 341
e 227 620
e 227 246
e 227 630
e 227 714
e 228 953
e 228 612
e 230 328
e 230 378
e 230 751
e 230 439
e 230 741
e 230 513
e 231 805
e 231 588
e 231 292
e 231 353
e 233 665
e 233 929
e 233 718
e 234 520
e 234 566
e 235 291
e 235 655
e 235 590
e 235 269
e 235 980
e 236 519
e 236 672
e 237 710
e 237 482
e 237 390
e 237 992
e 238 845
e 238 387
e 239 622
e 239 397
e 239 656
e 240 896
e 240 822
e 240 929
e 240 904
e 241 819
e 241 997
e 241 753
e 241 495
e 242 253
e 242 801
e 244 254
e 244 557
e 244 787
e 244 515
e 246 554
e 246 954
e 246 556
e 247 381
e 247 816
e 247 573
e 249 767
e 249 533
e 249 376
e 250 466
e 250 662
e 250 368
e 250 977
e 250 972
e 251 476
e 251 584
e 251 805
e 251 547
e 251 369
e 252 943
e 252 796
e 252 310
e 252 975
e 252 847
e 252 421
e 252 267
e 252 888
e 252 650
e 253 468
e 253 771
e 253 968
e 254 723
e 254 306
e 255 566
e 255 265
e 255 338
e 255 710
e 255 614
e 255 684
e 256 526
e 256 663
e 258 324
e 258 405
e 258 888
e 259 748
e 259 790
e 259 495
e 259 850
e 259 941
e 260 761
e 260 558
e 260 817
e 261 802
e 261 792
e 261 609
e 262 896
e 262 735
e 262 964
e 263 437
e 263 706
e 263 923
e 263 415
e 263 362
e 265 289
e 265 750
e 265 910
e 265 816
e 265 844
e 266 956
e 266 466
e 266 720
e 267 323
e 267 324
e 267 826
e 267 301
e 267 687
e 267 647
e 268 581
e 268 473
e 268 998
e 269 818
e 269 608
e 269 669
e 269 392
e 269 788
e 269 769
e 270 365
e 272 672
e 272 562
e 272 503
e 272 774
e 272 429
e 275 953
e 275 313
e 275 848
e 276 921
e 276 625
e 276 520
e 278 625
e 278 510
e 278 346
e 279 626
e 279 884
e 279 386
e 279 374
e 279 745
e 280 791
e 280 679
e 280 950
e 282 313
e 282 286
e 282 569
e 285 596
e 285 541
e 285 320
e 285 801
e 286 585
e 287 343
e 287 749
e 287 677
e 289 364
e 289 448
e 289 961
e 290 650
e 290 969
e 290 662
e 290 609
e 290 331
e 290 593
e 291 840
e 291 638
e 292 421
e 292 984
e 292 452
e 293 771
e 293 960
e 293 359
e 295 581
e 295 796
e 295 621
e 295 731
e 296 813
e 296 900
e 296 578
e 297 429
e 298 926
e 298 547
e 298 346
e 298 531
e 298 820
e 299 378
e 299 504
e 300 958
e 301 588
e 301 921
e 301 855
e 302 722
e 302 828
e 302 548
e 302 383
e 303 750
e 303 511
e 303 664
e 303 950
e 303 458
e 304 666
e 304 861
e 304 778
e 304 820
e 304 341
e 305 688
e 306 865
e 306 856
e 307 679
e 307 476
e 307 894
e 307 735
e 308 350
e 308 689
e 308 620
e 308 574
e 308 656
e 310 726
e 310 507
e 310 768
e 311 795
e 311 389
e 311 582
e 311 862
e 312 835
e 313 425
e 313 374
e 314 714
e 314 655
e 314 847
e 315 733
e 315 587
e 315 971
e 316 813
e 316 870
e 316 669
e 316 812
e 316 534
e 318 465
e 320 498
e 320 906
e 320 418
e 320 467
e 322 473
e 322 531
e 322 711
e 322 411
e 323 541
e 323 402
e 323 745
e 324 366
e 324 376
e 324 338
e 324 952
e 324 348
e 327 409
e 327 353
e 328 972
e 328 599
e 328 565
e 330 719
e 330 897
e 330 949
e 330 693
e 330 556
e 331 815
e 331 614
e 334 554
e 334 972
e 334 828
e 334 528
e 335 639
e 335 668
e 336 609
e 336 398
e 336 812
e 337 560
e 337 518
e 337 473
e 337 396
e 338 935
e 340 848
e 341 418
e 341 847
e 342 412
e 342 992
e 343 981
e 343 763
e 344 618
e 344 998
e 344 669
e 344 705
e 345 921
e 345 585
e 345 879
e 346 354
e 348 438
e 348 412
e 348 714
e 349 768
e 349 548
e 349 425
e 349 709
e 350 968
e 352 832
e 352 461
e 352 571
e 352 634
e 353 368
e 353 698
e 353 943
e 354 841
e 354 759
e 354 761
e 354 616
e 355 914
e 355 974
e 355 872
e 357 705
e 357 916
e 357 540
e 357 544
e 358 829
e 358 448
e 359 881
e 359 513
e 360 867
e 360 630
e 360 929
e 361 575
e 361 860
e 361 513
e 362 639
e 362 758
e 362 511
e 362 596
e 363 786
e 363 652
e 363 922
e 364 471
e 364 768
e 365 493
e 365 385
e 365 912
e 366 967
e 368 373
e 368 958
e 368 792
e 368 684
e 368 374
e 368 954
e 369 987
e 369 410
e 370 857
e 370 518
e 370 826
e 370 428
e 370 575
e 372 794
e 372 742
e 372 531
e 372 774
e 373 398
e 373 538
e 374 622
e 374 969
e 374 631
e 375 813
e 375 514
e 375 818
e 375 388
e 376 450
e 376 850
e 376 897
e 376 663
e 377 922
e 377 743
e 377 701
e 378 465
e 378 581
e 378 969
e 378 891
e 378 611
e 379 987
e 381 722
e 381 945
e 383 547
e 383 467
e 385 992
e 385 458
e 385 566
e 386 444
e 386 632
e 386 584
e 387 840
e 387 715
e 387 789
e 388 961
e 388 834
e 389 503
e 389 813
e 389 781
e 389 404
e 389 917
e 390 986
e 390 668
e 391 572
e 391 617
e 391 891
e 392 792
e 392 747
e 393 678
e 393 994
e 395 981
e 395 744
e 395 532
e 395 737
e 396 486
e 396 878
e 397 975
e 397 680
e 398 614
e 398 559
e 398 690
e 400 487
e 400 806
e 400 994
e 400 972
e 400 483
e 402 667
e 402 522
e 402 714
e 402 521
e 402 974
e 403 901
e 403 550
e 404 889
e 404 931
e 405 790
e 405 661
e 406 828
e 406 958
e 407 566
e 407 828
e 407 616
e 407 600
e 409 473
e 409 701
e 410 897
e 410 999
e 410 598
e 410 985
e 411 504
e 411 413
e 412 621
e 412 896
e 412 715
e 412 548
e 413 787
e 413 964
e 413 884
e 413 782
e 414 995
e 414 572
e 414 569
e 414 876
e 415 472
e 415 841
e 415 544
e 416 907
e 416 870
e 416 786
e 421 845
e 421 652
e 422 536
e 422 843
e 422 797
e 423 802
e 423 800
e 423 611
e 423 595
e 425 605
e 426 963
e 426 862
e 426 926
e 426 487
e 426 517
e 427 438
e 427 844
e 427 536
e 427 930
e 427 693
e 428 560
e 428 961
e 429 787
e 429 868
e 429 603
e 429 850
e 429 609
e 430 710
e 430 819
e 430 471
e 431 987
e 431 735
e 431 665
e 431 831
e 432 794
e 432 562
e 432 967
e 433 762
e 433 662
e 435 691
e 435 503
e 436 763
e 436 571
e 436 610
e 436 835
e 437 935
e 438 540
e 438 530
e 439 739
e 439 816
e 440 854
e 440 600
e 440 705
e 440 955
e 442 604
e 442 513
e 442 574
e 442 653
e 442 654
e 442 805
e 444 918
e 445 673
e 445 968
e 445 592
e 445 561
e 448 556
e 448 564
e 448 782
e 452 461
e 452 786
e 456 565
e 456 893
e 457 464
e 457 889
e 457 606
e 458 600
e 458 482
e 458 506
e 458 915
e 461 928
e 461 791
e 461 528
e 463 688
e 463 806
e 464 943
e 465 522
e 465 998
e 465 928
e 465 817
e 466 848
e 466 478
e 467 842
e 468 939
e 471 671
e 472 994
e 473 686
e 473 874
e 473 913
e 473 842
e 474 731
e 474 937
e 474 759
e 474 475
e 475 831
e 475 569
e 475 955
e 476 696
e 476 749
e 476 779
e 478 636
e 478 803
e 482 872
e 483 738
e 483 973
e 483 967
e 484 898
e 485 545
e 485 709
e 485 655
e 485 631
e 485 544
e 486 889
e 486 808
e 486 898
e 486 569
e 487 807
e 487 678
e 487 782
e 488 660
e 488 611
e 488 902
e 488 701
e 488 666
e 489 965
e 489 929
e 489 829
e 491 927
e 491 545
e 491 897
e 491 684
e 491 915
e 494 855
e 494 822
e 497 844
e 497 767
e 497 809
e 497 546
e 498 653
e 498 769
e 498 771
e 499 698
e 499 834
e 502 953
e 502 538
e 502 731
e 502 670
e 503 962
e 503 898
e 503 669
e 504 907
e 506 884
e 507 865
e 507 834
e 510 656
e 510 731
e 510 542
e 510 903
e 510 732
e 511 905
e 513 872
e 513 558
e 514 868
e 514 804
e 515 993
e 515 935
e 515 839
e 515 672
e 515 819
e 517 693
e 517 931
e 518 577
e 518 651
e 518 704
e 519 666
e 519 740
e 521 532
e 521 937
e 521 740
e 522 582
e 524 765
e 524 746
e 524 639
e 524 726
e 524 569
e 525 622
e 525 747
e 526 940
e 526 751
e 526 735
e 527 761
e 527 691
e 527 667
e 527 578
e 528 540
e 528 568
e 530 546
e 530 680
e 530 575
e 530 667
e 531 835
e 532 667
e 533 732
e 533 614
e 534 746
e 534 658
e 536 606
e 536 653
e 538 973
e 540 789
e 540 971
e 541 621
e 542 586
e 542 546
e 542 809
e 542 661
e 544 691
e 544 931
e 544 965
e 544 803
e 545 870
e 545 875
e 546 786
e 546 554
e 546 629
e 547 822
e 548 789
e 549 645
e 549 603
e 549 854
e 549 710
e 550 732
e 550 832
e 553 960
e 553 649
e 553 654
e 554 978
e 554 728
e 555 825
e 555 929
e 555 994
e 555 796
e 557 654
e 557 808
e 557 670
e 558 896
e 559 617
e 559 901
e 560 591
e 560 723
e 561 698
e 561 741
e 562 862
e 563 924
e 563 604
e 563 634
e 564 951
e 564 610
e 565 566
e 565 577
e 565 672
e 565 968
e 568 834
e 568 813
e 568 580
e 572 970
e 572 797
e 572 968
e 573 622
e 573 971
e 574 924
e 577 735
e 578 987
e 578 579
e 578 720
e 579 809
e 579 986
e 580 608
e 580 599
e 581 839
e 581 989
e 581 584
e 582 677
e 582 602
e 584 609
e 584 617
e 585 632
e 585 779
e 585 685
e 586 820
e 586 745
e 586 776
e 587 610
e 587 828
e 588 835
e 588 817
e 589 816
e 590 796
e 590 811
e 590 648
e 590 803
e 591 616
e 592 950
e 592 717
e 593 717
e 593 849
e 595 656
e 595 672
e 596 793
e 596 989
e 598 647
e 598 797
e 598 951
e 598 841
e 599 984
e 600 865
e 602 723
e 602 927
e 602 939
e 603 636
e 603 638
e 603 784
e 604 914
e 605 795
e 605 638
e 606 769
e 608 725
e 611 925
e 612 655
e 612 694
e 612 878
e 612 719
e 613 777
e 613 989
e 614 849
e 614 891
e 614 910
e 614 634
e 617 854
e 617 619
e 618 871
e 618 733
e 618 858
e 619 648
e 620 667
e 621 916
e 626 996
e 626 796
e 626 995
e 627 714
e 627 825
e 629 900
e 631 737
e 632 893
e 634 914
e 635 848
e 635 795
e 635 850
e 637 977
e 637 731
e 637 848
e 637 871
e 638 818
e 639 970
e 639 727
e 639 822
e 643 958
e 643 719
e 645 832
e 645 711
e 645 792
e 645 684
e 647 762
e 649 668
e 649 962
e 649 778
e 649 809
e 649 915
e 650 744
e 650 964
e 650 772
e 651 861
e 652 940
e 652 804
e 652 740
e 652 964
e 653 748
e 653 874
e 654 870
e 654 944
e 655 829
e 655 678
e 658 854
e 658 815
e 660 771
e 660 744
e 662 818
e 662 829
e 663 703
e 663 917
e 663 929
e 664 772
e 664 779
e 665 963
e 666 879
e 668 929
e 669 808
e 670 977
e 670 903
e 670 870
e 671 902
e 672 820
e 672 897
e 673 975
e 673 815
e 673 970
e 674 688
e 674 954
e 676 876
e 676 799
e 676 743
e 677 953
e 677 884
e 677 818
e 678 956
e 679 951
e 679 926
e 679 757
e 679 927
e 680 735
e 683 879
e 683 818
e 684 781
e 684 799
e 685 762
e 686 758
e 686 907
e 687 706
e 688 997
e 688 775
e 689 967
e 690 899
e 693 832
e 693 747
e 693 867
e 693 854
e 696 923
e 698 718
e 701 889
e 701 808
e 703 725
e 703 704
e 704 943
e 704 910
e 705 998
e 706 845
e 706 757
e 706 776
e 710 930
e 711 954
e 717 967
e 717 747
e 717 771
e 718 744
e 719 751
e 722 825
e 723 929
e 726 970
e 726 800
e 727 738
e 727 775
e 728 789
e 731 743
e 731 985
e 735 952
e 735 835
e 737 968
e 737 893
e 738 807
e 738 808
e 738 799
e 738 875
e 738 902
e 739 972
e 739 758
e 740 907
e 741 962
e 742 812
e 742 884
e 743 997
e 744 843
e 744 956
e 745 797
e 746 799
e 746 805
e 747 921
e 748 899
e 748 872
e 749 803
e 749 820
e 749 881
e 749 843
e 750 953
e 750 922
e 757 969
e 758 899
e 758 928
e 759 969
e 761 815
e 762 918
e 763 856
e 764 799
e 766 919
e 766 794
e 766 904
e 767 894
e 767 943
e 771 889
e 771 790
e 772 855
e 772 952
e 774 840
e 774 905
e 775 776
e 775 808
e 776 812
e 776 792
e 777 858
e 778 896
e 779 894
e 779 906
e 781 969
e 782 865
e 782 944
e 783 894
e 784 940
e 785 794
e 785 958
e 788 919
e 789 905
e 791 808
e 793 971
e 796 806
e 796 834
e 797 943
e 797 917
e 799 856
e 800 826
e 800 831
e 801 840
e 804 999
e 807 958
e 807 952
e 809 825
e 809 995
e 816 978
e 820 847
e 822 961
e 822 987
e 823 974
e 823 929
e 823 998
e 828 974
e 828 903
e 832 870
e 834 899
e 835 985
e 835 855
e 835 879
e 839 905
e 839 901
e 841 897
e 842 850
e 842 926
e 847 871
e 848 858
e 849 996
e 849 898
e 850 977
e 850 912
e 857 999
e 858 957
e 858 867
e 858 994
e 860 958
e 865 924
e 865 906
e 868 985
e 871 972
e 872 998
e 874 949
e 878 935
e 879 944
e 881 922
e 881 928
e 894 953
e 894 940
e 898 941
e 912 921
e 913 927
e 916 970
e 921 997
e 921 975
e 923 999
e 925 970
e 926 992
e 927 945
e 943 977
e 974 975
e 980 985
e 984 995
e 987 999
